Route #1: 130 13 1 111 79 98 31 60 72 8 110 53 114 43 93 2 78 116 17 124 70 40 9 109 126
Route #2: 41 86 5 107 6 102 87 48 142 55 137 82 123 81 100 11 74 133 64 61 90 28 83 56 91 35 85
Route #3: 84 128 118 54 12 89 45 65 44 18 139 95 57 97 7 32 16 36 25 127
Route #4: 68 66 101 23 132 104 21 33 125 62 96 47 120 19 115 136 4
Route #5: 58 67 46 30 121 34 103 63 112 140 42 131 69 119 22 122 37 14 77 141
Route #6: 117 92 108 134 10 113 138 105 129 76 3 94 26 75 29 39 80 15 38 27 106 24 99
Route #7: 59 135 20 52 88 51 73 49 71 50
Cost 19671
